#BEGIN: [Fri Oct 28 10:24:56 2022]
#HOST: mini04.local
#TIMELIMIT: 10800
#MEMLIMIT: 0
#FREQ: 10
#SOLVER: anSolverAsp221027
#CSP: benchmark/automata-network/abdallah17amb_asp/mammalian.lp
#K: 1
#COMMAND: /Users/soh/app/finding_attractors/incremental-finding.sh benchmark/automata-network/abdallah17amb_asp/mammalian.lp 1
benchmark/automata-network/abdallah17amb_asp/mammalian.lp 1
-e %----- The attractor computed for benchmark/automata-network/abdallah17amb_asp/mammalian.lp 
 %----- The size of the attractor = 1 

clingo version 5.4.0
Reading from ...from_paper2017/scripts/fixed-points.lp ...
Solving...
Answer: 1
fix("CycD",0) fix("CycE",0) fix("Rb",1) fix("E2F",0) fix("CycA",0) fix("p27",1) fix("Cdc20",0) fix("UbcH10",0) fix("Cdh1",1) fix("CycB",0)
SATISFIABLE

Models       : 1
Calls        : 1
Time         : 0.010s (Solving: 0.00s 1st Model: 0.00s Unsat: 0.00s)
CPU Time     : 0.005s
s SATISFIABLE
	Command being timed: "/Users/soh/app/finding_attractors/incremental-finding.sh benchmark/automata-network/abdallah17amb_asp/mammalian.lp 1"
	User time (seconds): 0.00
	System time (seconds): 0.00
	Percent of CPU this job got: 57%
	Elapsed (wall clock) time (h:mm:ss or m:ss): 0:00.02
	Average shared text size (kbytes): 0
	Average unshared data size (kbytes): 0
	Average stack size (kbytes): 0
	Average total size (kbytes): 0
	Maximum resident set size (kbytes): 13713408
	Average resident set size (kbytes): 0
	Major (requiring I/O) page faults: 0
	Minor (reclaiming a frame) page faults: 2245
	Voluntary context switches: 25
	Involuntary context switches: 54
	Swaps: 0
	File system inputs: 0
	File system outputs: 0
	Socket messages sent: 42
	Socket messages received: 0
	Signals delivered: 1
	Page size (bytes): 4096
	Exit status: 0
FINISHED CPU 0 MEM 0 MAXMEM 0 STALE 1
#RESULT: SAT
#FIN: FIN
#CPU: 0
#MAXMEM: 0
c 
#END: [Fri Oct 28 10:24:57 2022]
